predicate all_different_int(array [int] of var int: x);
array [1..16] of float: d = [0.0, 2.23606797749979, 2.23606797749979, 3.605551275463989, 2.23606797749979, 0.0, 1.4142135623730951, 1.4142135623730951, 2.23606797749979, 1.4142135623730951, 0.0, 2.0, 3.605551275463989, 1.4142135623730951, 2.0, 0.0];
array [1..4] of float: x = [0.0, 1.0, 2.0, 2.0];
array [1..4] of float: y = [3.0, 1.0, 2.0, 0.0];
var 0.0..3.605551275463989: FLOAT____00002 :: is_defined_var :: var_is_introduced;
var 0.0..3.605551275463989: FLOAT____00004 :: is_defined_var :: var_is_introduced;
var 0.0..3.605551275463989: FLOAT____00006 :: is_defined_var :: var_is_introduced;
var 0.0..10.816653826391967: FLOAT____00007 :: is_defined_var :: var_is_introduced;
var 1..16: INT____00001 :: is_defined_var :: var_is_introduced;
var 1..16: INT____00003 :: is_defined_var :: var_is_introduced;
var 1..16: INT____00005 :: is_defined_var :: var_is_introduced;
var 0.0..10.816653826391967: dist :: output_var = FLOAT____00007;
array [1..4] of var 1..4: visit :: output_array([1..4]);
constraint all_different_int(visit);
constraint array_float_element(INT____00001, d, FLOAT____00002) :: defines_var(FLOAT____00002);
constraint array_float_element(INT____00003, d, FLOAT____00004) :: defines_var(FLOAT____00004);
constraint array_float_element(INT____00005, d, FLOAT____00006) :: defines_var(FLOAT____00006);
constraint float_lin_eq([-1.0, 1.0, 1.0, 1.0], [FLOAT____00007, FLOAT____00002, FLOAT____00004, FLOAT____00006], 0.0) :: defines_var(FLOAT____00007);
constraint int_lin_eq([-1, 4, 1], [INT____00001, visit[1], visit[2]], 4) :: defines_var(INT____00001) :: domain;
constraint int_lin_eq([-1, 4, 1], [INT____00003, visit[2], visit[3]], 4) :: defines_var(INT____00003) :: domain;
constraint int_lin_eq([-1, 4, 1], [INT____00005, visit[3], visit[4]], 4) :: defines_var(INT____00005) :: domain;
solve satisfy;
